
Gurobi 9.5.1 (mac64[x86]) logging started Sat Jun 11 11:10:47 2022

Set parameter LogFile to value "/Users/keyvanmajd/Documents/GitHub/NNRepLayer_v2/demos/walking_example/dynamic_constraint/repair_net/logs/opt_log_6_11_2022_11_10_25.log"
Gurobi Optimizer version 9.5.1 build v9.5.1rc2 (mac64[x86])
Thread count: 4 physical cores, 8 logical processors, using up to 8 threads
Optimize a model with 516 rows, 184 columns and 1469 nonzeros
Model fingerprint: 0xce4dee0a
Model has 151 quadratic objective terms
Coefficient statistics:
  Matrix range     [3e-03, 2e+01]
  Objective range  [2e-02, 3e+00]
  QObjective range [1e-01, 2e+00]
  Bounds range     [1e+00, 6e+01]
  RHS range        [7e-04, 2e+01]
Presolve removed 323 rows and 12 columns
Presolve time: 0.00s
Presolved: 193 rows, 172 columns, 1129 nonzeros
Presolved model has 151 quadratic objective terms
Ordering time: 0.00s

Barrier statistics:
 Dense cols : 12
 AA' NZ     : 1.299e+03
 Factor NZ  : 1.982e+03
 Factor Ops : 2.891e+04 (less than 1 second per iteration)
 Threads    : 1

                  Objective                Residual
Iter       Primal          Dual         Primal    Dual     Compl     Time
   0   4.03000373e+07 -4.04720055e+07  4.03e+03 4.81e+02  9.16e+05     0s
   1   1.25996230e+07 -1.28054962e+07  2.19e+03 2.61e+02  5.04e+05     0s
   2   9.67204471e+05 -1.29402588e+06  5.94e+02 7.07e+01  1.72e+05     0s
   3   1.64108286e+02 -3.33001615e+05  3.87e+00 4.62e-01  1.97e+03     0s
   4   1.11832272e+02 -2.36619378e+05  1.85e+00 2.20e-01  1.12e+03     0s
   5   1.03387451e+02 -1.52594480e+05  1.45e+00 1.73e-01  9.26e+02     0s
   6   1.00915740e+02  3.44079046e+04  1.36e+00 1.61e-01  9.01e+02     0s
   7   9.95254078e+01  1.47947287e+05  1.30e+00 1.55e-01  8.53e+02     0s
   8   9.85462486e+01  3.05050698e+05  1.26e+00 1.51e-01  8.24e+02     0s
   9   9.68631505e+01  8.02189076e+05  1.22e+00 1.45e-01  7.56e+02     0s
  10   9.52896749e+01  2.15044058e+06  1.20e+00 1.43e-01  7.31e+02     0s
  11   9.56972380e+01  6.93738169e+06  1.20e+00 1.43e-01  7.40e+02     0s
  12   9.54126321e+01  1.88875039e+07  1.20e+00 1.43e-01  7.74e+02     0s
  13   9.51526361e+01  1.33582817e+08  1.20e+00 1.43e-01  8.40e+02     0s
  14   9.50314307e+01  2.01171751e+09  1.20e+00 1.43e-01  1.24e+03     0s
  15   1.00649994e+09 -1.00736023e+09  2.02e+04 2.40e+03  2.29e+07     0s
  16   7.90307610e+03 -9.43263577e+03  5.45e+01 1.16e+01  1.61e+02     0s
  17   9.99885224e+01 -8.86620725e+00  3.31e+00 6.48e-01  6.44e-01     0s
  18   8.28401191e+01  6.15373635e+01  1.61e+00 2.99e-01  2.74e-01     0s
  19   9.01698340e+01  1.18383468e+02  1.41e+00 2.81e-01  3.81e-01     0s
  20   1.13419310e+02  6.97190261e+02  1.43e+00 1.53e-01  4.45e+00     0s
  21   1.01568710e+02  1.40708111e+04  1.84e+00 1.96e-01  3.63e+02     0s
  22   1.11444100e+02  3.81904517e+06  2.14e+00 2.28e-01  2.23e+05     0s
  23*  1.11444114e+02  3.76376922e+09  3.30e-04 5.64e-05  7.83e-02     0s
  24*  1.11444114e+02  3.76736388e+12  3.30e-07 6.43e-08  7.83e-05     0s
  25*  1.11444139e+02  3.76736073e+15  3.30e-10 1.13e-08  7.83e-08     0s
  26*  1.11444139e+02  3.76736073e+18  3.30e-13 6.87e-10  7.83e-11     0s

Barrier performed 26 iterations in 0.01 seconds (0.00 work units)
Infeasible model

